(set-info :source |printed by MathSAT|)
(declare-fun |!{$(in_main#0)<i>}| () Int)
(declare-fun |!{$(in_main#0)<i>}.next| () Int)
(declare-fun |!{$(in_main#0)<j>}| () Int)
(declare-fun |!{$(in_main#0)<j>}.next| () Int)
(declare-fun |!{$(in_main#0)<size>}| () Int)
(declare-fun |!{$(in_main#0)<size>}.next| () Int)
(declare-fun |!{$(in_main#0)<b.1>}| () (Array Int Int))
(declare-fun |!{$(in_main#0)<b.1>}.next| () (Array Int Int))
(declare-fun |!{$(in_main#0)<a.2>}| () (Array Int Int))
(declare-fun |!{$(in_main#0)<a.2>}.next| () (Array Int Int))
(declare-fun |!{$(in_main#0)<$(in___VERIFIER_nondet_int#0)<h#<__VERIFIER_nondet_int.return>>>}| () Int)
(declare-fun |!{$(in_main#0)<$(in___VERIFIER_nondet_int#1)<h#<__VERIFIER_nondet_int.return>>>}| () Int)
(declare-fun !pc () Int)
(declare-fun !pc.next () Int)
(declare-fun |%{$(in_main#0)<b.1>}#1| () (Array Int Int))
(declare-fun |%{$(in_main#0)<a.2>}#1| () (Array Int Int))
(define-fun .def_29 () Int (! !pc :next !pc.next))
(define-fun .def_32 () Bool (! (= .def_29 2) :init true))
(define-fun .def_145 () Bool (= .def_29 24))
(define-fun .def_126 () Bool (= !pc.next 43))
(define-fun .def_148 () Bool (and .def_126 .def_145))
(define-fun .def_10 () Int (! |!{$(in_main#0)<j>}| :next |!{$(in_main#0)<j>}.next|))
(define-fun .def_71 () Bool (= .def_10 |!{$(in_main#0)<j>}.next|))
(define-fun .def_44 () Bool (= |!{$(in_main#0)<i>}.next| 0))
(define-fun .def_140 () Bool (and .def_44 .def_71))
(define-fun .def_12 () Int (! |!{$(in_main#0)<size>}| :next |!{$(in_main#0)<size>}.next|))
(define-fun .def_73 () Bool (= .def_12 |!{$(in_main#0)<size>}.next|))
(define-fun .def_141 () Bool (and .def_73 .def_140))
(define-fun .def_14 () (Array Int Int) (! |!{$(in_main#0)<b.1>}| :next |!{$(in_main#0)<b.1>}.next|))
(define-fun .def_75 () Bool (= .def_14 |!{$(in_main#0)<b.1>}.next|))
(define-fun .def_142 () Bool (and .def_75 .def_141))
(define-fun .def_16 () (Array Int Int) (! |!{$(in_main#0)<a.2>}| :next |!{$(in_main#0)<a.2>}.next|))
(define-fun .def_77 () Bool (= .def_16 |!{$(in_main#0)<a.2>}.next|))
(define-fun .def_143 () Bool (and .def_77 .def_142))
(define-fun .def_8 () Int (! |!{$(in_main#0)<i>}| :next |!{$(in_main#0)<i>}.next|))
(define-fun .def_57 () Bool (<= .def_12 .def_8))
(define-fun .def_144 () Bool (and .def_57 .def_143))
(define-fun .def_149 () Bool (and .def_144 .def_148))
(define-fun .def_54 () Bool (= !pc.next 24))
(define-fun .def_146 () Bool (and .def_54 .def_145))
(define-fun .def_133 () (Array Int Int) (store .def_14 .def_8 |!{$(in_main#0)<$(in___VERIFIER_nondet_int#1)<h#<__VERIFIER_nondet_int.return>>>}|))
(define-fun .def_136 () Bool (= |!{$(in_main#0)<b.1>}.next| .def_133))
(define-fun .def_81 () Int (* (- 1) |!{$(in_main#0)<i>}.next|))
(define-fun .def_82 () Int (+ .def_8 .def_81))
(define-fun .def_83 () Bool (= .def_82 (- 1)))
(define-fun .def_134 () Bool (and .def_71 .def_83))
(define-fun .def_135 () Bool (and .def_73 .def_134))
(define-fun .def_137 () Bool (and .def_135 .def_136))
(define-fun .def_138 () Bool (and .def_77 .def_137))
(define-fun .def_58 () Bool (not .def_57))
(define-fun .def_139 () Bool (and .def_58 .def_138))
(define-fun .def_147 () Bool (and .def_139 .def_146))
(define-fun .def_150 () Bool (or .def_147 .def_149))
(define-fun .def_125 () Bool (= .def_29 43))
(define-fun .def_104 () Bool (= !pc.next 57))
(define-fun .def_129 () Bool (and .def_104 .def_125))
(define-fun .def_45 () Bool (= |!{$(in_main#0)<j>}.next| 0))
(define-fun .def_46 () Bool (and .def_44 .def_45))
(define-fun .def_120 () Bool (and .def_46 .def_73))
(define-fun .def_121 () Bool (and .def_75 .def_120))
(define-fun .def_122 () Bool (and .def_77 .def_121))
(define-fun .def_123 () Bool (and .def_57 .def_122))
(define-fun .def_130 () Bool (and .def_123 .def_129))
(define-fun .def_127 () Bool (and .def_125 .def_126))
(define-fun .def_115 () Int (select .def_14 .def_8))
(define-fun .def_116 () (Array Int Int) (store .def_16 .def_10 .def_115))
(define-fun .def_117 () Bool (= |!{$(in_main#0)<a.2>}.next| .def_116))
(define-fun .def_84 () Int (* (- 1) |!{$(in_main#0)<j>}.next|))
(define-fun .def_85 () Int (+ .def_10 .def_84))
(define-fun .def_86 () Bool (= .def_85 (- 1)))
(define-fun .def_87 () Bool (and .def_83 .def_86))
(define-fun .def_88 () Bool (and .def_73 .def_87))
(define-fun .def_89 () Bool (and .def_75 .def_88))
(define-fun .def_118 () Bool (and .def_89 .def_117))
(define-fun .def_119 () Bool (and .def_58 .def_118))
(define-fun .def_128 () Bool (and .def_119 .def_127))
(define-fun .def_131 () Bool (or .def_128 .def_130))
(define-fun .def_108 () Bool (= !pc.next 0))
(define-fun .def_99 () Bool (= .def_29 57))
(define-fun .def_109 () Bool (and .def_99 .def_108))
(define-fun .def_69 () Bool (= .def_8 |!{$(in_main#0)<i>}.next|))
(define-fun .def_93 () Bool (and .def_57 .def_69))
(define-fun .def_94 () Bool (and .def_71 .def_93))
(define-fun .def_95 () Bool (and .def_73 .def_94))
(define-fun .def_96 () Bool (and .def_75 .def_95))
(define-fun .def_97 () Bool (and .def_77 .def_96))
(define-fun .def_110 () Bool (and .def_97 .def_109))
(define-fun .def_105 () Bool (and .def_99 .def_104))
(define-fun .def_90 () Bool (and .def_77 .def_89))
(define-fun .def_60 () Int (select .def_14 .def_10))
(define-fun .def_59 () Int (select .def_16 .def_10))
(define-fun .def_61 () Bool (= .def_59 .def_60))
(define-fun .def_62 () Int (ite .def_61 1 0))
(define-fun .def_63 () Bool (= .def_62 0))
(define-fun .def_64 () Bool (not .def_63))
(define-fun .def_91 () Bool (and .def_64 .def_90))
(define-fun .def_92 () Bool (and .def_58 .def_91))
(define-fun .def_106 () Bool (and .def_92 .def_105))
(define-fun .def_101 () Bool (= !pc.next 77))
(define-fun .def_102 () Bool (and .def_99 .def_101))
(define-fun .def_70 () Bool (and .def_63 .def_69))
(define-fun .def_72 () Bool (and .def_70 .def_71))
(define-fun .def_74 () Bool (and .def_72 .def_73))
(define-fun .def_76 () Bool (and .def_74 .def_75))
(define-fun .def_78 () Bool (and .def_76 .def_77))
(define-fun .def_79 () Bool (and .def_58 .def_78))
(define-fun .def_103 () Bool (and .def_79 .def_102))
(define-fun .def_107 () Bool (or .def_103 .def_106))
(define-fun .def_111 () Bool (or .def_107 .def_110))
(define-fun .def_55 () Bool (and .def_32 .def_54))
(define-fun .def_51 () Bool (= |!{$(in_main#0)<a.2>}.next| |%{$(in_main#0)<a.2>}#1|))
(define-fun .def_49 () Bool (= |!{$(in_main#0)<b.1>}.next| |%{$(in_main#0)<b.1>}#1|))
(define-fun .def_47 () Bool (= |!{$(in_main#0)<size>}.next| |!{$(in_main#0)<$(in___VERIFIER_nondet_int#0)<h#<__VERIFIER_nondet_int.return>>>}|))
(define-fun .def_48 () Bool (and .def_46 .def_47))
(define-fun .def_50 () Bool (and .def_48 .def_49))
(define-fun .def_52 () Bool (and .def_50 .def_51))
(define-fun .def_56 () Bool (and .def_52 .def_55))
(define-fun .def_112 () Bool (or .def_56 .def_111))
(define-fun .def_132 () Bool (or .def_112 .def_131))
(define-fun .def_151 () Bool (! (or .def_132 .def_150) :trans true))
(define-fun .def_113 () Bool (= .def_29 77))
(define-fun .def_152 () Bool (! (not .def_113) :invar-property 0 :invar-property-name ||))
(assert true)
